QPLIB_3225
LCQ
minimize
136 # number of variables
80 # number of constraints
0.0 # default value for linear coefficients in objective
28 # number of non-default linear coefficients in objective
1 1.0
2 1.0
3 1.0
4 1.0
5 1.0
6 1.0
7 1.0
8 1.0
9 1.0
10 1.0
11 1.0
12 1.0
13 1.0
14 1.0
15 1.0
16 1.0
17 1.0
18 1.0
19 1.0
20 1.0
21 1.0
22 1.0
23 1.0
24 1.0
25 1.0
26 1.0
27 1.0
28 1.0
0.0 # objective constant
240 # number of quadratic terms in all constraints
15 1 -826248602 2.0
15 1 -826248602 -2.0
15 1 -826248602 -2.0
15 1 -826248602 -2.0
15 1 -826248602 -2.0
16 32526 -1074790399 2.0
16 32526 -1074790399 -2.0
16 32526 -1074790399 -2.0
16 32526 -1074790399 -2.0
16 32526 -1074790399 -2.0
17 22559825 1 2.0
17 22559825 1 -2.0
17 22559825 1 -2.0
17 22559825 1 -2.0
17 22559825 1 -2.0
18 1 -1074790399 2.0
18 1 -1074790399 -2.0
18 1 -1074790399 -2.0
18 1 -1074790399 -2.0
18 1 -1074790399 -2.0
19 1970417268 130 2.0
19 1970417268 130 -2.0
19 1970417268 130 -2.0
19 1970417268 130 -2.0
19 1970417268 130 -2.0
20 32623 1 2.0
20 32623 1 -2.0
20 32623 1 -2.0
20 32623 1 -2.0
20 32623 1 -2.0
21 65 -850148127 2.0
21 65 -850148127 -2.0
21 65 -850148127 -2.0
21 65 -850148127 -2.0
21 65 -850148127 -2.0
22 32526 1 2.0
22 32526 1 -2.0
22 32526 1 -2.0
22 32526 1 -2.0
22 32526 1 -2.0
23 50 2 2.0
23 50 2 -2.0
23 50 2 -2.0
23 50 2 -2.0
23 50 2 -2.0
24 1 1 2.0
24 1 1 -2.0
24 1 1 -2.0
24 1 1 -2.0
24 1 1 -2.0
25 1651076121 22559473 2.0
25 1651076121 22559473 -2.0
25 1651076121 22559473 -2.0
25 1651076121 22559473 -2.0
25 1651076121 22559473 -2.0
26 1668574818 1 2.0
26 1668574818 1 -2.0
26 1668574818 1 -2.0
26 1668574818 1 -2.0
26 1668574818 1 -2.0
27 1651076196 1 2.0
27 1651076196 1 -2.0
27 1651076196 1 -2.0
27 1651076196 1 -2.0
27 1651076196 1 -2.0
28 1932407863 1 2.0
28 1932407863 1 -2.0
28 1932407863 1 -2.0
28 1932407863 1 -2.0
28 1932407863 1 -2.0
29 1851859056 22553153 2.0
29 1851859056 22553153 -2.0
29 1851859056 22553153 -2.0
29 1851859056 22553153 -2.0
29 1851859056 22553153 -2.0
30 540090485 1 2.0
30 540090485 1 -2.0
30 540090485 1 -2.0
30 540090485 1 -2.0
30 540090485 1 -2.0
31 22559505 49 2.0
31 22559505 49 -2.0
31 22559505 49 -2.0
31 22559505 49 -2.0
31 22559505 49 -2.0
32 1 1 2.0
32 1 1 -2.0
32 1 1 -2.0
32 1 1 -2.0
32 1 1 -2.0
33 1 1 2.0
33 1 1 -2.0
33 1 1 -2.0
33 1 1 -2.0
33 1 1 -2.0
34 1 1 2.0
34 1 1 -2.0
34 1 1 -2.0
34 1 1 -2.0
34 1 1 -2.0
35 50 1 2.0
35 50 1 -2.0
35 50 1 -2.0
35 50 1 -2.0
35 50 1 -2.0
36 1 1 2.0
36 1 1 -2.0
36 1 1 -2.0
36 1 1 -2.0
36 1 1 -2.0
37 1651076121 1 2.0
37 1651076121 1 -2.0
37 1651076121 1 -2.0
37 1651076121 1 -2.0
37 1651076121 1 -2.0
38 1668834403 2 2.0
38 1668834403 2 -2.0
38 1668834403 2 -2.0
38 1668834403 2 -2.0
38 1668834403 2 -2.0
39 1651076196 1 -2.0
39 1651076196 1 -2.0
39 1651076196 1 -2.0
39 1651076196 1 -2.0
40 1932407863 1 -2.0
40 1932407863 1 -2.0
40 1932407863 1 -2.0
40 1932407863 1 -2.0
41 1684152432 2 -2.0
41 1684152432 2 -2.0
41 1684152432 2 -2.0
41 1684152432 2 -2.0
42 540156025 2 -2.0
42 540156025 2 -2.0
42 540156025 2 -2.0
42 540156025 2 -2.0
43 825307441 1 -2.0
43 825307441 1 -2.0
43 825307441 1 -2.0
43 825307441 1 -2.0
44 824193057 1 -2.0
44 824193057 1 -2.0
44 824193057 1 -2.0
44 824193057 1 -2.0
45 807415841 124 -2.0
45 807415841 124 -2.0
45 807415841 124 -2.0
45 807415841 124 -2.0
46 824193057 1 -2.0
46 824193057 1 -2.0
46 824193057 1 -2.0
46 824193057 1 -2.0
47 -2147483648 50 -2.0
47 -2147483648 50 -2.0
47 -2147483648 50 -2.0
47 -2147483648 50 -2.0
48 256 1 -2.0
48 256 1 -2.0
48 256 1 -2.0
48 256 1 -2.0
49 1651076122 1 -2.0
49 1651076122 1 -2.0
49 1651076122 1 -2.0
49 1651076122 1 -2.0
50 1852403556 1 -2.0
50 1852403556 1 -2.0
50 1852403556 1 -2.0
50 1852403556 1 -2.0
51 1768711012 34 -2.0
51 1768711012 34 -2.0
51 1768711012 34 -2.0
51 1768711012 34 -2.0
52 775173731 1 -2.0
52 775173731 1 -2.0
52 775173731 1 -2.0
52 775173731 1 -2.0
53 1953845015 1646292852 -2.0
53 1953845015 1646292852 -2.0
53 1953845015 1646292852 -2.0
53 1953845015 1646292852 -2.0
54 824209008 544503153 -2.0
54 824209008 544503153 -2.0
54 824209008 544503153 -2.0
54 824209008 544503153 -2.0
55 1701603687 174993441 -2.0
55 1701603687 174993441 -2.0
55 1701603687 174993441 -2.0
55 1701603687 174993441 -2.0
56 1735617896 1734438945 -2.0
56 1735617896 1734438945 -2.0
56 1735617896 1734438945 -2.0
56 1735617896 1734438945 -2.0
57 1769414758 49 2.0
57 1769414758 49 -2.0
58 6845541 1 2.0
58 6845541 1 -2.0
59 306 34 2.0
59 306 34 -2.0
60 1 1 2.0
60 1 1 -2.0
61 1734430730 22602737 2.0
61 1734430730 22602737 -2.0
62 1684625254 1 2.0
62 1684625254 1 -2.0
63 -826237799 -826251147 2.0
63 -826237799 -826251147 -2.0
64 32526 32526 2.0
64 32526 32526 -2.0
65 22563457 1 2.0
65 22563457 1 -2.0
66 2 1 2.0
66 2 1 -2.0
67 50 1 2.0
67 50 1 -2.0
68 138 1 2.0
68 138 1 -2.0
69 1734430730 1 2.0
69 1734430730 1 -2.0
70 1684625254 1 2.0
70 1684625254 1 -2.0
71 22556049 -826251147 2.0
71 22556049 -826251147 -2.0
72 32526 1 2.0
72 32526 1 -2.0
73 22563889 1 2.0
73 22563889 1 -2.0
74 1 1 2.0
74 1 1 -2.0
75 22563681 130 2.0
75 22563681 130 -2.0
76 1 1 2.0
76 1 1 -2.0
77 22602737 49 2.0
77 22602737 49 -2.0
78 1 1 2.0
78 1 1 -2.0
79 34 -826238087 2.0
79 34 -826238087 -2.0
80 32526 1 2.0
80 32526 1 -2.0
393 # number of linear terms in all constraints
1 1 -1.0
1 8 -1.0
1 15 -1.0
1 22 -1.0
1 77 1.0
1 78 -1.0
1 79 -1.0
1 80 -1.0
1 81 -1.0
1 82 -1.0
1 83 -1.0
1 84 -1.0
2 2 -1.0
2 9 -1.0
2 16 -1.0
2 23 -1.0
2 85 1.0
2 86 -1.0
2 87 -1.0
2 88 -1.0
2 89 -1.0
2 90 -1.0
2 91 -1.0
2 92 -1.0
3 3 -1.0
3 10 -1.0
3 17 -1.0
3 24 -1.0
3 93 1.0
3 94 -1.0
3 95 -1.0
3 96 -1.0
3 97 -1.0
3 98 -1.0
3 99 -1.0
3 100 -1.0
4 4 -1.0
4 11 -1.0
4 18 -1.0
4 25 -1.0
4 101 1.0
4 102 -1.0
4 103 -1.0
4 104 -1.0
4 105 -1.0
4 106 -1.0
4 107 -1.0
4 108 -1.0
5 5 -1.0
5 12 -1.0
5 19 -1.0
5 26 -1.0
5 109 -1.0
5 110 -1.0
5 111 -1.0
5 112 -1.0
5 113 -1.0
5 114 -1.0
5 115 -1.0
6 6 -1.0
6 13 -1.0
6 20 -1.0
6 27 -1.0
6 116 -1.0
6 117 -1.0
6 118 -1.0
6 119 -1.0
6 120 -1.0
6 121 -1.0
6 122 -1.0
7 7 -1.0
7 14 -1.0
7 21 -1.0
7 28 -1.0
7 123 -1.0
7 124 -1.0
7 125 -1.0
7 126 -1.0
7 127 -1.0
7 128 -1.0
7 129 -1.0
8 77 1.0
8 78 -1.0
8 86 -1.0
8 94 -1.0
8 102 -1.0
8 109 -1.0
8 116 -1.0
8 123 -1.0
8 130 -1.0
9 79 -1.0
9 85 1.0
9 87 -1.0
9 95 -1.0
9 103 -1.0
9 110 -1.0
9 117 -1.0
9 124 -1.0
9 131 -1.0
10 80 -1.0
10 88 -1.0
10 93 1.0
10 96 -1.0
10 104 -1.0
10 111 -1.0
10 118 -1.0
10 125 -1.0
10 132 -1.0
11 81 -1.0
11 89 -1.0
11 97 -1.0
11 101 1.0
11 105 -1.0
11 112 -1.0
11 119 -1.0
11 126 -1.0
11 133 -1.0
12 82 -1.0
12 90 -1.0
12 98 -1.0
12 106 -1.0
12 113 -1.0
12 120 -1.0
12 127 -1.0
12 134 -1.0
13 83 -1.0
13 91 -1.0
13 99 -1.0
13 107 -1.0
13 114 -1.0
13 121 -1.0
13 128 -1.0
13 135 -1.0
14 84 -1.0
14 92 -1.0
14 100 -1.0
14 108 -1.0
14 115 -1.0
14 122 -1.0
14 129 -1.0
14 136 -1.0
15 1 -4.0
15 8 -4.0
15 22 -4.0
15 82 -850.0
15 83 -112.0
15 84 -491.0
16 1 -5.0
16 8 -6.0
16 15 -6.0
16 82 -3560.0
16 83 -429.0
16 84 -476.0
17 8 -2.0
17 15 -4.0
17 22 -2.0
17 82 -400.0
17 83 -505.0
17 84 -197.0
18 1 -8.0
18 8 -7.0
18 15 -5.0
18 22 -7.0
18 82 -56.0
18 83 -266.0
18 84 -493.0
19 8 -2.0
19 15 -1.0
19 22 -2.0
19 82 -436.0
19 83 -481.0
19 84 -399.0
20 1 -4.0
20 15 -1.0
20 82 -90.0
20 83 -505.0
20 84 -495.0
21 2 -4.0
21 9 -4.0
21 23 -4.0
21 90 -850.0
21 91 -112.0
21 92 -491.0
22 2 -5.0
22 9 -6.0
22 16 -6.0
22 90 -3560.0
22 91 -429.0
22 92 -476.0
23 9 -2.0
23 16 -4.0
23 23 -2.0
23 90 -400.0
23 91 -505.0
23 92 -197.0
24 2 -8.0
24 9 -7.0
24 16 -5.0
24 23 -7.0
24 90 -56.0
24 91 -266.0
24 92 -493.0
25 9 -2.0
25 16 -1.0
25 23 -2.0
25 90 -436.0
25 91 -481.0
25 92 -399.0
26 2 -4.0
26 16 -1.0
26 90 -90.0
26 91 -505.0
26 92 -495.0
27 3 -4.0
27 10 -4.0
27 24 -4.0
27 98 -850.0
27 99 -112.0
27 100 -491.0
28 3 -5.0
28 10 -6.0
28 17 -6.0
28 98 -3560.0
28 99 -429.0
28 100 -476.0
29 10 -2.0
29 17 -4.0
29 24 -2.0
29 98 -400.0
29 99 -505.0
29 100 -197.0
30 3 -8.0
30 10 -7.0
30 17 -5.0
30 24 -7.0
30 98 -56.0
30 99 -266.0
30 100 -493.0
31 10 -2.0
31 17 -1.0
31 24 -2.0
31 98 -436.0
31 99 -481.0
31 100 -399.0
32 3 -4.0
32 17 -1.0
32 98 -90.0
32 99 -505.0
32 100 -495.0
33 4 -4.0
33 11 -4.0
33 25 -4.0
33 106 -850.0
33 107 -112.0
33 108 -491.0
34 4 -5.0
34 11 -6.0
34 18 -6.0
34 106 -3560.0
34 107 -429.0
34 108 -476.0
35 11 -2.0
35 18 -4.0
35 25 -2.0
35 106 -400.0
35 107 -505.0
35 108 -197.0
36 4 -8.0
36 11 -7.0
36 18 -5.0
36 25 -7.0
36 106 -56.0
36 107 -266.0
36 108 -493.0
37 11 -2.0
37 18 -1.0
37 25 -2.0
37 106 -436.0
37 107 -481.0
37 108 -399.0
38 4 -4.0
38 18 -1.0
38 106 -90.0
38 107 -505.0
38 108 -495.0
39 5 -4.0
39 12 -4.0
39 26 -4.0
39 113 -850.0
39 114 -112.0
39 115 -491.0
40 5 -5.0
40 12 -6.0
40 19 -6.0
40 113 -3560.0
40 114 -429.0
40 115 -476.0
41 12 -2.0
41 19 -4.0
41 26 -2.0
41 113 -400.0
41 114 -505.0
41 115 -197.0
42 5 -8.0
42 12 -7.0
42 19 -5.0
42 26 -7.0
42 113 -56.0
42 114 -266.0
42 115 -493.0
43 12 -2.0
43 19 -1.0
43 26 -2.0
43 113 -436.0
43 114 -481.0
43 115 -399.0
44 5 -4.0
44 19 -1.0
44 113 -90.0
44 114 -505.0
44 115 -495.0
45 6 -4.0
45 13 -4.0
45 27 -4.0
45 120 -850.0
45 121 -112.0
45 122 -491.0
46 6 -5.0
46 13 -6.0
46 20 -6.0
46 120 -3560.0
46 121 -429.0
46 122 -476.0
47 13 -2.0
47 20 -4.0
47 27 -2.0
47 120 -400.0
47 121 -505.0
47 122 -197.0
48 6 -8.0
48 13 -7.0
48 20 -5.0
48 27 -7.0
48 120 -56.0
48 121 -266.0
48 122 -493.0
49 13 -2.0
49 20 -1.0
49 27 -2.0
49 120 -436.0
49 121 -481.0
49 122 -399.0
50 6 -4.0
50 20 -1.0
50 120 -90.0
50 121 -505.0
50 122 -495.0
51 7 -4.0
51 14 -4.0
51 28 -4.0
51 127 -850.0
51 128 -112.0
51 129 -491.0
52 7 -5.0
52 14 -6.0
52 21 -6.0
52 127 -3560.0
52 128 -429.0
52 129 -476.0
53 14 -2.0
53 21 -4.0
53 28 -2.0
53 127 -400.0
53 128 -505.0
53 129 -197.0
54 7 -8.0
54 14 -7.0
54 21 -5.0
54 28 -7.0
54 127 -56.0
54 128 -266.0
54 129 -493.0
55 14 -2.0
55 21 -1.0
55 28 -2.0
55 127 -436.0
55 128 -481.0
55 129 -399.0
56 7 -4.0
56 21 -1.0
56 127 -90.0
56 128 -505.0
56 129 -495.0
1.79769313486232E+308 # value for infinity
0.0 # default left-hand-side value
48 # number of non-default left-hand-sides
5 -120.0
6 -68.0
7 -130.0
12 -80.0
13 -58.0
14 -120.0
39 -42000.0
40 -5760.0
41 -31200.0
42 -2520.0
43 -33360.0
44 -1440.0
45 -2924.0
46 -23256.0
47 -15776.0
48 -18020.0
49 -26724.0
50 -20332.0
51 -58760.0
52 -8320.0
53 -1300.0
54 -43420.0
55 -18590.0
56 -31720.0
57 -6016.0
58 -22272.0
59 -15744.0
60 -256.0
61 -10752.0
62 -6400.0
63 -4250.0
64 -3230.0
65 -1870.0
66 -84796.0
67 -884.0
68 -3332.0
69 -10080.0
70 -4914.0
71 -46242.0
72 -5418.0
73 -16506.0
74 -4284.0
75 -3456.0
76 -43776.0
77 -39040.0
78 -52224.0
79 -17280.0
80 -27008.0
0.0 # default right-hand-side value
48 # number of non-default right-hand-sides
5 -120.0
6 -68.0
7 -130.0
12 -80.0
13 -58.0
14 -120.0
39 1.79769313486232E+308
40 1.79769313486232E+308
41 1.79769313486232E+308
42 1.79769313486232E+308
43 1.79769313486232E+308
44 1.79769313486232E+308
45 1.79769313486232E+308
46 1.79769313486232E+308
47 1.79769313486232E+308
48 1.79769313486232E+308
49 1.79769313486232E+308
50 1.79769313486232E+308
51 1.79769313486232E+308
52 1.79769313486232E+308
53 1.79769313486232E+308
54 1.79769313486232E+308
55 1.79769313486232E+308
56 1.79769313486232E+308
57 -6016.0
58 -22272.0
59 -15744.0
60 -256.0
61 -10752.0
62 -6400.0
63 -4250.0
64 -3230.0
65 -1870.0
66 -84796.0
67 -884.0
68 -3332.0
69 -10080.0
70 -4914.0
71 -46242.0
72 -5418.0
73 -16506.0
74 -4284.0
75 -3456.0
76 -43776.0
77 -39040.0
78 -52224.0
79 -17280.0
80 -27008.0
0.0 # default variable lower bound value
0 # number of non-default variable lower bounds
100000.0 # default variable upper bound value
52 # number of non-default variable upper bounds
29 45.0
30 52.0
31 189.0
32 33.0
33 210.0
34 24.0
35 120.0
36 30.0
37 30.0
38 12234.0
39 98.0
40 656.0
41 142.0
42 420.0
43 200.0
44 13.0
45 637.0
46 24.0
47 20.0
48 25.0
49 15.0
50 25.0
51 454.0
52 256.0
53 139.0
54 400.0
55 435.0
56 37.0
57 378.0
58 124.0
59 245.0
60 125.0
61 85.0
62 14728.0
63 124.0
64 754.0
65 222.0
66 459.0
67 567.0
68 56.0
69 768.0
70 58.0
71 47.0
72 367.0
73 320.0
74 433.0
75 589.0
76 467.0
77 64.0
85 34.0
93 126.0
101 128.0
0.0 # default variable primal value in starting point
0 # number of non-default variable primal values in starting point
0.0 # default constraint dual value in starting point
0 # number of non-default constraint dual values in starting point
0.0 # default variable bound dual value in starting point
0 # number of non-default variable bound dual values in starting point
0 # number of non-default variable names
0 # number of non-default constraint names
